% Logging successfully configured
%%%mzn-stat: initTime=0.109512684
%%%mzn-stat: objective=752
%%%mzn-stat: nodes=96
%%%mzn-stat: restarts=0
%%%mzn-stat: peakDepth=76
%%%mzn-stat: solveTime=0.000799977
%%%mzn-stat: variables=208
%%%mzn-stat: propagators=318
%%%mzn-stat: failures=11
%%%mzn-stat: propagations=2707
%%%mzn-stat: nogoods=11
%%%mzn-stat: numAtomicConstraintsPropagated=0
%%%mzn-stat: circuitNumber191PropagationsThatFoundConflict=3
%%%mzn-stat: circuitNumber191TotalFixedEdgesAtConflict=35
%%%mzn-stat: circuitNumber191NumberOfConflicts=3
%%%mzn-stat: circuitNumber191PropagationsThatPruned=11
%%%mzn-stat: circuitNumber191PropagationsTotal=40
%%%mzn-stat: AverageConflictSize=2.4545454545454546
%%%mzn-stat: NumUnitNogoodsLearned=0
%%%mzn-stat: AverageLearnedNogoodLength=6.363636363636363
%%%mzn-stat: AverageBacktrackAmount=0
%%%mzn-stat: AverageLbd=3.727272727272727
%%%mzn-stat: 2AutonomousSearchNumBackupCalled=69
%%%mzn-stat: 2AutonomousSearchNumPredicatesRemoved=0
%%%mzn-stat: 2AutonomousSearchNumCalls=70
%%%mzn-stat: 2AutonomousSearchNumPredicatesAdded=229
%%%mzn-stat: 2AutonomousSearchAverageSizeOfHeap=3.2714285714285714
%%%mzn-stat: 2AutonomousSearchNumAssignedPredicatesEncountered=229
%%%mzn-stat-end
maxleg = 752;
succ = array1d(1..20,[6, 7, 13, 9, 11, 10, 3, 14, 19, 2, 4, 8, 12, 16, 17, 5, 20, 1, 15, 18]);
% time elapsed: 4.32 s
----------
==========
% time elapsed: 4.32 s
%%%mzn-stat: initTime=0.109512684
%%%mzn-stat: objective=752
%%%mzn-stat: nodes=477
%%%mzn-stat: restarts=0
%%%mzn-stat: peakDepth=76
%%%mzn-stat: solveTime=0.020067525
%%%mzn-stat: variables=208
%%%mzn-stat: propagators=318
%%%mzn-stat: failures=296
%%%mzn-stat: propagations=44787
%%%mzn-stat: nogoods=296
%%%mzn-stat: numAtomicConstraintsPropagated=0
%%%mzn-stat: circuitNumber191PropagationsThatFoundConflict=12
%%%mzn-stat: circuitNumber191TotalFixedEdgesAtConflict=136
%%%mzn-stat: circuitNumber191NumberOfConflicts=12
%%%mzn-stat: circuitNumber191PropagationsThatPruned=94
%%%mzn-stat: circuitNumber191PropagationsTotal=436
%%%mzn-stat: AverageConflictSize=2.760135135135135
%%%mzn-stat: NumUnitNogoodsLearned=1
%%%mzn-stat: AverageLearnedNogoodLength=9.45608108108108
%%%mzn-stat: AverageBacktrackAmount=0
%%%mzn-stat: AverageLbd=3.75
%%%mzn-stat: 2AutonomousSearchNumBackupCalled=69
%%%mzn-stat: 2AutonomousSearchNumPredicatesRemoved=0
%%%mzn-stat: 2AutonomousSearchNumCalls=70
%%%mzn-stat: 2AutonomousSearchNumPredicatesAdded=785
%%%mzn-stat: 2AutonomousSearchAverageSizeOfHeap=3.2714285714285714
%%%mzn-stat: 2AutonomousSearchNumAssignedPredicatesEncountered=229
%%%mzn-stat-end
